&CONTROL
  calculation = 'scf',
  outdir = './tmp/',
  prefix = 'N2-cnt',
  pseudo_dir = '/home/ren/pseudo/',
  restart_mode = 'from_scratch',
/
&SYSTEM
  celldm(1) = 30.292322,
  celldm(3) = 0.5307548,
  ecutrho = 420.0,
  ecutwfc = 42.0,
  ibrav = 4,
  nat = 130,
  ntyp = 2,
  spline_ps = .TRUE.,
/
&ELECTRONS
  conv_thr = 1d-10,
  diagonalization = 'david',
/
&IONS
/
&CELL
/
ATOMIC_SPECIES
  C  10.8100 C.pbe-rrkjus-gipaw-dc.UPF
  N  12.0110 N.pbe-rrkjus-gipaw-dc.UPF
ATOMIC_POSITIONS crystal
  C 0.900545 0.885192 0.166811
  C 0.935794 0.831913 0.083619
  C 0.098758 0.113323 0.166941
  C 0.065622 0.168485 0.083687
  C 0.954097 0.765478 0.166940
  C 0.147319 0.072752 0.083721
  C 0.283441 0.042004 0.416976
  C 0.365904 0.053774 0.333641
  C 0.048941 0.236043 0.166950
  C 0.209681 0.048610 0.333672
  C 0.935604 0.603466 0.333630
  C 0.899955 0.514998 0.417060
  C 0.147486 0.574879 0.333513
  C 0.954052 0.688225 0.416918
  C 0.629938 0.940562 0.333501
  C 0.711329 0.949966 0.416853
  C 0.849378 0.426132 0.333830
  C 0.542879 0.913488 0.416827
  C 0.785941 0.945123 0.333587
  C 0.453493 0.083124 0.416981
  C 0.453541 0.083202 0.083811
  C 0.147334 0.574791 0.166831
  C 0.098574 0.485744 0.083553
  C 0.065483 0.397516 0.166948
  C 0.048776 0.313221 0.083723
  C 0.849489 0.426054 0.167154
  C 0.900114 0.514887 0.083800
  C 0.935580 0.603460 0.167008
  C 0.283461 0.042151 0.083701
  C 0.365893 0.053893 0.167021
  C 0.786026 0.340019 0.083924
  C 0.453903 0.870271 0.166786
  C 0.366321 0.812004 0.083595
  C 0.283728 0.741393 0.166904
  C 0.849970 0.923546 0.083537
  C 0.542764 0.128648 0.167135
  C 0.630016 0.188357 0.083816
  C 0.712047 0.259766 0.167065
  C 0.209738 0.661163 0.083615
  C 0.954006 0.688217 0.083686
  C 0.453393 0.083129 0.583657
  C 0.785028 0.340811 0.583811
  C 0.453683 0.870106 0.666919
  C 0.849538 0.922773 0.583545
  C 0.542501 0.128940 0.667046
  C 0.629469 0.189142 0.583769
  C 0.711083 0.260884 0.667218
  C 0.147759 0.073054 0.583650
  C 0.954297 0.765562 0.666916
  C 0.935752 0.831754 0.583512
  C 0.900205 0.884695 0.666935
  C 0.711622 0.260301 0.833860
  C 0.629902 0.188476 0.917113
  C 0.099355 0.113778 0.833691
  C 0.066028 0.168749 0.916960
  C 0.453872 0.870223 0.833580
  C 0.147457 0.072855 0.916973
  C 0.283710 0.741470 0.833605
  C 0.366312 0.812053 0.916894
  C 0.542670 0.128765 0.833754
  C 0.209794 0.661155 0.916895
  C 0.453758 0.870205 0.333454
  C 0.147506 0.072862 0.416962
  C 0.099641 0.486052 0.583578
  C 0.067093 0.398046 0.666964
  C 0.900583 0.885149 0.333509
  C 0.935882 0.831932 0.416868
  C 0.954074 0.765456 0.333626
  C 0.935707 0.603599 0.667122
  C 0.098975 0.113415 0.333679
  C 0.066476 0.168997 0.417038
  C 0.049719 0.236431 0.333710
  C 0.849710 0.923059 0.416895
  C 0.849936 0.923482 0.916796
  C 0.049775 0.236509 0.833674
  C 0.935762 0.831854 0.916946
  C 0.900322 0.884924 0.833619
  C 0.786350 0.945881 0.166821
  C 0.954051 0.765440 0.833657
  C 0.630214 0.941221 0.166830
  C 0.712338 0.952019 0.083573
  C 0.209627 0.048568 0.166962
  C 0.543085 0.913892 0.083502
  C 0.051544 0.314456 0.583673
  C 0.849024 0.426415 0.667067
  C 0.899906 0.515146 0.583710
  C 0.954278 0.688339 0.583698
  C 0.209783 0.661409 0.583605
  C 0.785477 0.944366 0.666860
  C 0.283543 0.741693 0.666865
  C 0.365798 0.053519 0.667070
  C 0.283338 0.041727 0.583726
  C 0.147695 0.574958 0.666971
  C 0.366078 0.812243 0.583505
  C 0.629699 0.939829 0.666875
  C 0.710941 0.949126 0.583516
  C 0.209677 0.048483 0.666993
  C 0.542778 0.913279 0.583532
  C 0.099365 0.485939 0.416955
  C 0.066310 0.397784 0.333619
  C 0.542726 0.128616 0.333807
  C 0.209792 0.661345 0.416847
  C 0.283658 0.741523 0.333583
  C 0.366103 0.812194 0.416798
  C 0.050696 0.314058 0.416965
  C 0.785568 0.340318 0.417107
  C 0.711957 0.259887 0.333855
  C 0.629861 0.188626 0.417145
  C 0.453504 0.083110 0.917094
  C 0.786146 0.945560 0.833557
  C 0.712341 0.951995 0.916833
  C 0.630167 0.940967 0.833536
  C 0.050899 0.237095 0.666996
  C 0.209690 0.048606 0.833753
  C 0.283466 0.042104 0.917080
  C 0.365859 0.053667 0.833766
  C 0.099708 0.113985 0.667019
  C 0.067032 0.169350 0.583654
  C 0.785907 0.340192 0.917114
  C 0.049171 0.313410 0.916907
  C 0.066109 0.397702 0.833598
  C 0.098699 0.485779 0.916901
  C 0.147435 0.574802 0.833632
  C 0.953986 0.688204 0.917035
  C 0.935751 0.603518 0.833804
  C 0.900249 0.514960 0.917115
  C 0.849374 0.426191 0.833816
  C 0.543095 0.913934 0.916806
  N 0.834192 0.166321 0.617970
  N 0.833065 0.168060 0.486604
K_POINTS automatic
  1 1 14 0 0 0
