 &CONTROL
                 calculation = 'scf' ,
                restart_mode = 'from_scratch' ,
                      outdir = './tmp/' ,
                  pseudo_dir = '/home/ren/pseudo/' ,
                      prefix = 'N2-cnt' ,
 /
 &SYSTEM
                       ibrav =4,
                       celldm(1)=30.292322,
                       celldm(3)=0.5307548,
                         nat = 130,
                        ntyp = 2,
                     ecutwfc = 42.0 ,
                     ecutrho = 420.0
                   spline_ps = .true.
 /
 &ELECTRONS
             diagonalization = 'david' ,
                    conv_thr =  1e-10
 /
 &IONS
/
ATOMIC_SPECIES
    C   12.00000  C.pbe-rrkjus-gipaw-dc.UPF
    N   16.00000  N.pbe-rrkjus-gipaw-dc.UPF
ATOMIC_POSITIONS crystal  
C  0.9005448065134307  0.8851921566394432  0.1668112293235834
C  0.9357939396666967  0.8319130222552961  0.0836193863292658
C  0.0987584322404640  0.1133230547318931  0.1669409776638786
C  0.0656222458968689  0.1684853677623100  0.0836870154166955
C  0.9540970862244132  0.7654778579686158  0.1669398225779017
C  0.1473194211786988  0.0727521473440614  0.0837210194437433
C  0.2834408924927350  0.0420041616144876  0.4169761729279635
C  0.3659038612382183  0.0537737802060916  0.3336412826635471
C  0.0489408320444163  0.2360434271985153  0.1669497248750053
C  0.2096809220646574  0.0486103883753126  0.3336720567100309
C  0.9356040521621209  0.6034659396372180  0.3336295244383893
C  0.8999545879225195  0.5149980561152747  0.4170601795647589
C  0.1474859011641028  0.5748788888136573  0.3335132109253451
C  0.9540524353218691  0.6882251670610906  0.4169183328131338
C  0.6299384438194556  0.9405623222100882  0.3335014093592643
C  0.7113289975095874  0.9499657224145254  0.4168529262849037
C  0.8493778183347185  0.4261318982023519  0.3338304681295032
C  0.5428789329094351  0.9134879166455393  0.4168270200714783
C  0.7859412352692078  0.9451229705858665  0.3335866120168654
C  0.4534930087467400  0.0831240609949495  0.4169814967036995
C  0.4535407087993566  0.0832023434858838  0.0838108569242420
C  0.1473335129370144  0.5747905522064105  0.1668312170630913
C  0.0985742515460120  0.4857441671284962  0.0835526618493551
C  0.0654834989544408  0.3975163520451953  0.1669479350307933
C  0.0487764287572614  0.3132212634943357  0.0837233565422224
C  0.8494893877163022  0.4260540182526839  0.1671537398066210
C  0.9001135118486826  0.5148865126109344  0.0837997258844088
C  0.9355796111302564  0.6034599975096686  0.1670080640916356
C  0.2834609387832558  0.0421513074123542  0.0837013037389998
C  0.3658929853458362  0.0538926671075946  0.1670208531306911
C  0.7860263958829361  0.3400185407454751  0.0839243848241604
C  0.4539028036391672  0.8702709534713472  0.1667859329224591
C  0.3663207969686770  0.8120037715161753  0.0835946717777961
C  0.2837276320714461  0.7413926502856832  0.1669037961246684
C  0.8499695738077639  0.9235460914327365  0.0835368645849426
C  0.5427639516942450  0.1286482052280382  0.1671350746233549
C  0.6300164078415580  0.1883566568718695  0.0838158475863978
C  0.7120469616464025  0.2597663955022039  0.1670654186637500
C  0.2097381421953159  0.6611627514381067  0.0836153225161975
C  0.9540059402576377  0.6882165517639554  0.0836857797783375
C  0.4533928425401492  0.0831294300887416  0.5836572926056224
C  0.7850280602332911  0.3408109434945803  0.5838113205809818
C  0.4536825945591316  0.8701057733823957  0.6669187768602322
C  0.8495375789647696  0.9227734363622688  0.5835447352436783
C  0.5425012707619822  0.1289401824678402  0.6670462120074527
C  0.6294691025519522  0.1891424228912536  0.5837688849329213
C  0.7110826951764254  0.2608836854572673  0.6672178880711253
C  0.1477587133973404  0.0730540610857596  0.5836498365292470
C  0.9542970242013691  0.7655622144506826  0.6669163511803101
C  0.9357517352362269  0.8317536047394077  0.5835122725468392
C  0.9002051108054979  0.8846953124753516  0.6669352374487052
C  0.7116222460010894  0.2603011922073172  0.8338604023796102
C  0.6299016741821520  0.1884759682374364  0.9171131946755001
C  0.0993549092923183  0.1137776228841720  0.8336905752123756
C  0.0660275409084828  0.1687485795519392  0.9169602171542447
C  0.4538715667650164  0.8702226562311148  0.8335800655456261
C  0.1474567842771587  0.0728554166565241  0.9169730999955964
C  0.2837103739422962  0.7414702463819586  0.8336052410474130
C  0.3663118212244892  0.8120527722839991  0.9168935638266434
C  0.5426695089984646  0.1287654695667730  0.8337538281735147
C  0.2097940617694673  0.6611554460238278  0.9168952824440856
C  0.4537577788952787  0.8702047888965014  0.3334539150625496
C  0.1475061206965469  0.0728616100963182  0.4169620398617828
C  0.0996414475723057  0.4860519978816527  0.5835777786665913
C  0.0670934502806052  0.3980462245779500  0.6669644296893255
C  0.9005825117452506  0.8851489163483043  0.3335089391963633
C  0.9358816347714404  0.8319322151267244  0.4168678665090838
C  0.9540741279906579  0.7654562240623596  0.3336262087939863
C  0.9357071558462517  0.6035990715812125  0.6671221437926607
C  0.0989745031168362  0.1134148407451644  0.3336794467826494
C  0.0664763263487262  0.1689970183164979  0.4170382398544812
C  0.0497191825860564  0.2364312330073397  0.3337098063134490
C  0.8497101600625676  0.9230591974669464  0.4168950929456163
C  0.8499362916751165  0.9234818482533071  0.9167962484031834
C  0.0497754955853257  0.2365094352558005  0.8336743677167154
C  0.9357615918891303  0.8318536930483548  0.9169464511833941
C  0.9003215948033655  0.8849242183211384  0.8336186571103816
C  0.7863499380501979  0.9458810520907127  0.1668208031865115
C  0.9540506425593995  0.7654401396992837  0.8336566608116317
C  0.6302142306536792  0.9412214377183071  0.1668300286810631
C  0.7123379132994117  0.9520187158621559  0.0835734375721070
C  0.2096266744531852  0.0485676079115345  0.1669620430413776
C  0.5430848517439886  0.9138920317097753  0.0835022863593073
C  0.0515440821472055  0.3144555074680451  0.5836734698563094
C  0.8490239968635575  0.4264145645326797  0.6670668118290488
C  0.8999056695651064  0.5151463674186443  0.5837098863814600
C  0.9542778023357282  0.6883389209372348  0.5836980934077105
C  0.2097830530405076  0.6614088375156608  0.5836053864768508
C  0.7854772250970619  0.9443660173334548  0.6668604494964420
C  0.2835428711396898  0.7416926197960371  0.6668645285079621
C  0.3657977101559875  0.0535185774684597  0.6670697253585963
C  0.2833376595794697  0.0417267204564756  0.5837258196954522
C  0.1476950716828277  0.5749583735570644  0.6669706672297847
C  0.3660775210480195  0.8122427644754684  0.5835046265258405
C  0.6296994327020407  0.9398291474094835  0.6668753996839167
C  0.7109412451429705  0.9491255662933299  0.5835164008978591
C  0.2096773229595043  0.0484833878084054  0.6669934164247090
C  0.5427781134834472  0.9132790346394923  0.5835323209231480
C  0.0993646022159193  0.4859389151169349  0.4169553196448261
C  0.0663100370237830  0.3977844174413021  0.3336186665974969
C  0.5427258505426977  0.1286157293763298  0.3338070452577735
C  0.2097922677621721  0.6613453114320650  0.4168466534162856
C  0.2836577183562073  0.7415232871353856  0.3335833267526368
C  0.3661030758833430  0.8121937301208987  0.4167982927131411
C  0.0506956882585035  0.3140578152437764  0.4169647152064055
C  0.7855675346296755  0.3403182094367835  0.4171066561367769
C  0.7119574319854461  0.2598871384256675  0.3338552770019278
C  0.6298610790185954  0.1886258019434746  0.4171446288352332
C  0.4535042433290767  0.0831102159550017  0.9170937604465520
C  0.7861455766499084  0.9455603435738890  0.8335568400014974
C  0.7123410713044999  0.9519951405813647  0.9168332592926858
C  0.6301665411609738  0.9409673477774376  0.8335358569602741
C  0.0508989257807083  0.2370948567141727  0.6669962302958377
C  0.2096896752806102  0.0486059253689778  0.8337525837516986
C  0.2834663837947315  0.0421041391554438  0.9170802981794058
C  0.3658588743755619  0.0536670537352980  0.8337663612799591
C  0.0997080416912025  0.1139846560467063  0.6670190659155993
C  0.0670316263278548  0.1693495068758712  0.5836539760973432
C  0.7859072926755197  0.3401921914391454  0.9171137002399022
C  0.0491710656990581  0.3134100205917187  0.9169068974483144
C  0.0661088777776790  0.3977021321809720  0.8335977317273846
C  0.0986994284063671  0.4857787617383346  0.9169006569088630
C  0.1474347056339666  0.5748018728132538  0.8336320619222474
C  0.9539860205888830  0.6882037242703917  0.9170346750208139
C  0.9357505818623324  0.6035182053269111  0.8338036386099362
C  0.9002490054532110  0.5149601792873478  0.9171154242904661
C  0.8493742774839380  0.4261913656617126  0.8338157308535725
C  0.5430945611340736  0.9139336210556758  0.9168058713655440
N  0.8341921954810014  0.1663214007457515  0.6179703591359520
N  0.8330648655310321  0.1680602421384076  0.4866036142995854
K_POINTS automatic
1 1 14 0 0 0

